NAME : mar10_100_4
COMMENT : Data set with 10 points
COMMENT : CIn-UFPE
COMMENT : Contributed by Marcelo Lacerda
TYPE : TSP
DIMENSION : 10
EDGE_WEIGHT_TYPE : EUC_2D
NODE_COORD_SECTION
1 29 76
2 59 45
3 80 59
4 98 55
5 95 21
6 55 93
7 46 60
8 64 73
9 2 1
10 33 25
EOF
